c 3 - XORSAT
p cnf 10 40
-4 -5 -6 0
-4 5 6 0
4 -5 6 0
4 5 -6 0
1 10 9 0
-1 -10 9 0
-1 10 -9 0
1 -10 -9 0
6 9 4 0
-6 -9 4 0
-6 9 -4 0
6 -9 -4 0
1 3 5 0
-1 -3 5 0
-1 3 -5 0
1 -3 -5 0
-2 -3 -9 0
-2 3 9 0
2 -3 9 0
2 3 -9 0
-3 -4 -7 0
-3 4 7 0
3 -4 7 0
3 4 -7 0
-6 -7 -8 0
-6 7 8 0
6 -7 8 0
6 7 -8 0
-1 -2 -5 0
-1 2 5 0
1 -2 5 0
1 2 -5 0
-7 -8 -10 0
-7 8 10 0
7 -8 10 0
7 8 -10 0
-2 -8 -10 0
-2 8 10 0
2 -8 10 0
2 8 -10 0
